coords = array2d(1..59, 1..2, [556, 433, 391, 488, 493, 868, 537, 592, 396,
    714, 407, 482, 765, 364, 166, 222, 158, 478, 228, 247, 873, 857,
    35, 875, 243, 67, 701, 319, 525, 98, 229, 660, 606, 98, 468, 454,
    134, 471, 892, 198, 715, 652, 339, 132, 320, 748, 956, 123, 693,
    827, 274, 560, 491, 648, 755, 280, 8, 185, 417, 921, 145, 391,
    367, 667, 757, 59, 243, 911, 996, 654, 598, 119, 141, 387, 971,
    892, 158, 244, 7, 412, 511, 976, 829, 824, 274, 278, 664, 36, 689,
    517, 362, 658, 882, 724, 712, 571, 365, 787, 419, 853, 600, 908,
    853, 405, 988, 356, 39, 60, 342, 957, 804, 858, 285, 44, 703, 177,
    963, 858]);

n = 59;

